
Welcome to IBM(R) ILOG(R) CPLEX(R) Interactive Optimizer 22.1.1.0
  with Simplex, Mixed Integer & Barrier Optimizers
5725-A06 5725-A29 5724-Y48 5724-Y49 5724-Y54 5724-Y55 5655-Y21
Copyright IBM Corp. 1988, 2022.  All Rights Reserved.

Type 'help' for a list of available commands.
Type 'help' followed by a command name for more
information on commands.

CPLEX> Selected objective sense:  MINIMIZE
Selected objective  name:  00000000
Selected RHS        name:  RHS1
Selected bound      name:  BOUND
Problem 'ee.mps' read.
Read time = 0.03 sec. (3.17 ticks)
CPLEX> New value for time limit in seconds: 7200
CPLEX> New value for parallel optimization mode: -1
CPLEX> New value for default parallel thread count: 40
CPLEX> New value for mixed integer optimality gap tolerance: 1e-13
CPLEX> Version identifier: 22.1.1.0 | 2022-11-28 | 9160aff4d
CPXPARAM_Threads                                 40
CPXPARAM_Parallel                                -1
CPXPARAM_TimeLimit                               7200
CPXPARAM_MIP_Tolerances_MIPGap                   1e-13
Found incumbent of value 0.000000 after 0.00 sec. (0.31 ticks)
Tried aggregator 2 times.
MIP Presolve eliminated 183 rows and 2745 columns.
MIP Presolve modified 6090 coefficients.
Aggregator did 713 substitutions.
Reduced MIP has 3636 rows, 7840 columns, and 28953 nonzeros.
Reduced MIP has 7840 binaries, 0 generals, 0 SOSs, and 0 indicators.
Presolve time = 0.07 sec. (69.15 ticks)
Probing time = 0.03 sec. (5.33 ticks)
Tried aggregator 1 time.
Detecting symmetries...
Reduced MIP has 3636 rows, 7840 columns, and 28953 nonzeros.
Reduced MIP has 7840 binaries, 0 generals, 0 SOSs, and 0 indicators.
Presolve time = 0.03 sec. (22.09 ticks)
Probing time = 0.02 sec. (5.12 ticks)
Clique table members: 18788.
MIP emphasis: balance optimality and feasibility.
MIP search method: dynamic search.
Parallel mode: opportunistic, using up to 40 threads.
Root relaxation solution time = 0.07 sec. (55.49 ticks)

        Nodes                                         Cuts/
   Node  Left     Objective  IInf  Best Integer    Best Bound    ItCnt     Gap

*     0+    0                            0.0000  -1.54000e+13              --- 
*     0+    0                      -9.39000e+12  -1.54000e+13            64.00%
*     0+    0                      -1.05900e+13  -1.54000e+13            45.42%
*     0+    0                      -1.17900e+13  -1.54000e+13            30.62%
*     0+    0                      -1.20000e+13  -1.54000e+13            28.33%
*     0+    0                      -1.29900e+13  -1.54000e+13            18.55%
      0     0  -1.53900e+13   107  -1.29900e+13  -1.53900e+13     1664   18.48%
*     0+    0                      -1.53900e+13  -1.53900e+13             0.00%
      0     0  -1.53900e+13   233  -1.53900e+13      Cuts: 76     2430    0.00%
*     0+    0                      -1.53900e+13  -1.53900e+13             0.00%
      0     0  -1.53900e+13   277  -1.53900e+13      Cuts: 65     2630    0.00%
*     0+    0                      -1.53900e+13  -1.53900e+13             0.00%
*     0+    0                      -1.53900e+13  -1.53900e+13             0.00%
*     0+    0                      -1.53900e+13  -1.53900e+13             0.00%
      0     0  -1.00000e+75     0  -1.53900e+13  -1.53900e+13     2630    0.00%
      0     2  -1.53900e+13   267  -1.53900e+13  -1.53900e+13     2630    0.00%
Elapsed time = 2.37 sec. (1586.02 ticks, tree = 0.02 MB, solutions = 12)
     86    33  -1.53900e+13   157  -1.53900e+13  -1.53900e+13    16228    0.00%
    254   132    infeasible        -1.53900e+13  -1.53900e+13   102123    0.00%
    613   101        cutoff        -1.53900e+13  -1.53900e+13    50638    0.00%
   1129   110        cutoff        -1.53900e+13  -1.53900e+13    77340    0.00%
   1505   163  -1.53900e+13   148  -1.53900e+13  -1.53900e+13   113025    0.00%
   1943   224        cutoff        -1.53900e+13  -1.53900e+13   136565    0.00%
   2405   385  -1.53900e+13    79  -1.53900e+13  -1.53900e+13   269417    0.00%
   2775   278  -1.53900e+13   135  -1.53900e+13  -1.53900e+13   228688    0.00%
   3103   497  -1.53900e+13    62  -1.53900e+13  -1.53900e+13   370317    0.00%
   4620   509  -1.53900e+13   197  -1.53900e+13  -1.53900e+13   413490    0.00%
Elapsed time = 8.81 sec. (4688.44 ticks, tree = 5.28 MB, solutions = 13)
   7721   639  -1.53900e+13    11  -1.53900e+13  -1.53900e+13   629231    0.00%
  12132   832  -1.53900e+13    78  -1.53900e+13  -1.53900e+13   761453    0.00%
  14624   843  -1.53900e+13   177  -1.53900e+13  -1.53900e+13   741637    0.00%

Performing restart 1

Repeating presolve.
Tried aggregator 1 time.
MIP Presolve eliminated 29 rows and 14 columns.
MIP Presolve modified 1861 coefficients.
Reduced MIP has 3531 rows, 7826 columns, and 28313 nonzeros.
Reduced MIP has 7826 binaries, 0 generals, 0 SOSs, and 0 indicators.
Presolve time = 0.04 sec. (28.10 ticks)
Tried aggregator 2 times.
MIP Presolve eliminated 12 rows and 46 columns.
MIP Presolve modified 32 coefficients.
Aggregator did 18 substitutions.
Reduced MIP has 3501 rows, 7756 columns, and 28059 nonzeros.
Reduced MIP has 7756 binaries, 0 generals, 0 SOSs, and 0 indicators.
Presolve time = 0.06 sec. (54.35 ticks)
Represolve time = 0.20 sec. (136.81 ticks)
  14732     0  -1.53900e+13   365  -1.53900e+13      Cuts: 32   888673    0.00%
  14732     0  -1.53900e+13   416  -1.53900e+13      Cuts: 15   888732    0.00%
  14732     0  -1.53900e+13   336  -1.53900e+13      Cuts: 21   888829    0.00%
  14732     0  -1.53900e+13   329  -1.53900e+13      Cuts: 13   888874    0.00%
  14732     0  -1.53900e+13   374  -1.53900e+13      Cuts: 15   888894    0.00%
  14732     0  -1.53900e+13   355  -1.53900e+13       Cuts: 9   888913    0.00%
  14732     0  -1.53900e+13   382  -1.53900e+13      Cuts: 10   888943    0.00%
  14732     0  -1.53900e+13   348  -1.53900e+13   ZeroHalf: 5   889071    0.00%
  14732     0  -1.53900e+13   359  -1.53900e+13      Cuts: 23   889154    0.00%
  14732     3        cutoff        -1.53900e+13  -1.53900e+13   896474    0.00%
  16295    69  -1.53900e+13   124  -1.53900e+13  -1.53900e+13   904666    0.00%

GUB cover cuts applied:  1
Clique cuts applied:  8
Cover cuts applied:  251
Flow cuts applied:  2
Mixed integer rounding cuts applied:  14
Zero-half cuts applied:  45
Lift and project cuts applied:  3
Gomory fractional cuts applied:  16

Root node processing (before b&c):
  Real time             =    1.66 sec. (1584.00 ticks)
Parallel b&c, 40 threads:
  Real time             =   16.60 sec. (11433.29 ticks)
  Sync time (average)   =    2.96 sec.
  Wait time (average)   =    0.08 sec.
                          ------------
Total (root+branch&cut) =   18.26 sec. (13017.29 ticks)

Solution pool: 13 solutions saved.

MIP - Integer optimal solution:  Objective = -1.5389998388e+13
Solution time =   18.38 sec.  Iterations = 944926  Nodes = 16575
Deterministic time = 13017.33 ticks  (708.14 ticks/sec)

CPLEX> Solution 'p14' written to file 'ee.sol'.
CPLEX> 